c FILE: I7.clq
c
c SOURCE: Generated by Breno Maurício de Freitas Viana
c         writed
c
c           Graph Stats
c number of vertices  : 6
c number of edges     : 10
p col 6 10
e 1 2
e 2 3
e 2 4
e 2 5
e 2 6
e 3 4
e 3 5
e 4 5
e 5 6
e 6 1